(set-logic HORN)
(declare-fun state (Int (Array Int Int) (Array Int Int) (Array Int Int) (Array Int Int) Int Int (Array Int Int) (Array Int Int) Int Int Int Int Int Int Int Int Int Int Int Int Int Int Int Int Int Int Int Int Int Int Int Int Int Int Int Int Bool Bool Bool Bool Bool (Array Int Int)) Bool)
(assert (forall ((|A_28| Int) (|B_28| (Array Int Int)) (|C_28| (Array Int Int)) (|D_28| (Array Int Int)) (|E_28| (Array Int Int)) (|F_28| Int) (|G_28| Int) (|H_28| (Array Int Int)) (|I_28| (Array Int Int)) (|J_28| Int) (|K_28| Int) (|L_28| Int) (|M_28| Int) (|N_28| Int) (|O_28| Int) (|P_28| Int) (|Q_28| Int) (|R_28| Int) (|S_28| Int) (|T_28| Int) (|U_28| Int) (|V_28| Int) (|W_28| Int) (|X_28| Int) (|Y_28| Int) (|Z_28| Int) (|A1_28| Int) (|B1_28| Int) (|C1_28| Int) (|D1_28| Int) (|E1_28| Int) (|F1_28| Int) (|G1_28| Int) (|H1_28| Int) (|I1_28| Int) (|J1_28| Int) (|K1_28| Int) (|M1_16| Bool) (|.loc.5| Bool) (|.loc.6| Bool) (|.loc.7| Bool) (|.loc.8| Bool) (|M1_0| (Array Int Int)) (|.x.1050| Int) (|.x.1048| (Array Int Int)) (|.x.1046| Int) (|.x.1044| (Array Int Int)) (|.x.1040| Int) (|.x.1042| (Array Int Int)) (|.x.1041| (Array Int Int)) (|L1_28| Bool) (|.x.1052| Int) (|.x.1053| Int) (|.x.1060| Int) (|.x.1061| Int) (|.x.1062| Int) (|.x.1063| Int) (|.x.1065| Int) (|.x.1067| Int) (|.x.1070| Int) (|.x.1073| Int) (|.loc.10| Bool) (|.x.1064| Int) (|.x.1055| Int) (|.x.1069| Int) (|.x.1074| Int) (|.loc.11| Bool) (|.loc.9| Bool) (|.x.1072| Int) (|.x.1068| Int) (|.x.1058| Int) (|.x.1043| (Array Int Int)) (|.x.1066| Int) (|.x.1071| Int) (|.loc.12| Bool) (|.x.1075| Int) (|.x.1059| Int) (|.x.1076| Int) (|.x.1056| Int) (|.x.1057| Int) (|.x.1051| Int) (|.x.1054| Int) (|.x.1049| Int) (|.x.1045| Int) (|.x.1047| (Array Int Int)) (|.xtv.1| (Array Int Int))) (=> (and (and (and (and .loc.5 (not .loc.6)) (not .loc.7)) (not .loc.8)) (and (and (and (and (and (= D_28 E_28) (not M1_16)) (= F_28 G_28)) (= J_28 K_28)) (= H_28 I_28)) (= B_28 C_28))) (state |A_28| |B_28| |C_28| |D_28| |E_28| |F_28| |G_28| |H_28| |I_28| |J_28| |K_28| |L_28| |M_28| |N_28| |O_28| |P_28| |Q_28| |R_28| |S_28| |T_28| |U_28| |V_28| |W_28| |X_28| |Y_28| |Z_28| |A1_28| |B1_28| |C1_28| |D1_28| |E1_28| |F1_28| |G1_28| |H1_28| |I1_28| |J1_28| |K1_28| |M1_16| |.loc.5| |.loc.6| |.loc.7| |.loc.8| |M1_0|))))
(assert (forall ((|A_28| Int) (|B_28| (Array Int Int)) (|C_28| (Array Int Int)) (|D_28| (Array Int Int)) (|E_28| (Array Int Int)) (|F_28| Int) (|G_28| Int) (|H_28| (Array Int Int)) (|I_28| (Array Int Int)) (|J_28| Int) (|K_28| Int) (|L_28| Int) (|M_28| Int) (|N_28| Int) (|O_28| Int) (|P_28| Int) (|Q_28| Int) (|R_28| Int) (|S_28| Int) (|T_28| Int) (|U_28| Int) (|V_28| Int) (|W_28| Int) (|X_28| Int) (|Y_28| Int) (|Z_28| Int) (|A1_28| Int) (|B1_28| Int) (|C1_28| Int) (|D1_28| Int) (|E1_28| Int) (|F1_28| Int) (|G1_28| Int) (|H1_28| Int) (|I1_28| Int) (|J1_28| Int) (|K1_28| Int) (|M1_16| Bool) (|.loc.5| Bool) (|.loc.6| Bool) (|.loc.7| Bool) (|.loc.8| Bool) (|M1_0| (Array Int Int)) (|.x.1050| Int) (|.x.1048| (Array Int Int)) (|.x.1046| Int) (|.x.1044| (Array Int Int)) (|.x.1040| Int) (|.x.1042| (Array Int Int)) (|.x.1041| (Array Int Int)) (|L1_28| Bool) (|.x.1052| Int) (|.x.1053| Int) (|.x.1060| Int) (|.x.1061| Int) (|.x.1062| Int) (|.x.1063| Int) (|.x.1065| Int) (|.x.1067| Int) (|.x.1070| Int) (|.x.1073| Int) (|.loc.10| Bool) (|.x.1064| Int) (|.x.1055| Int) (|.x.1069| Int) (|.x.1074| Int) (|.loc.11| Bool) (|.loc.9| Bool) (|.x.1072| Int) (|.x.1068| Int) (|.x.1058| Int) (|.x.1043| (Array Int Int)) (|.x.1066| Int) (|.x.1071| Int) (|.loc.12| Bool) (|.x.1075| Int) (|.x.1059| Int) (|.x.1076| Int) (|.x.1056| Int) (|.x.1057| Int) (|.x.1051| Int) (|.x.1054| Int) (|.x.1049| Int) (|.x.1045| Int) (|.x.1047| (Array Int Int)) (|.xtv.1| (Array Int Int))) (=> (and (state |A_28| |B_28| |C_28| |D_28| |E_28| |F_28| |G_28| |H_28| |I_28| |J_28| |K_28| |L_28| |M_28| |N_28| |O_28| |P_28| |Q_28| |R_28| |S_28| |T_28| |U_28| |V_28| |W_28| |X_28| |Y_28| |Z_28| |A1_28| |B1_28| |C1_28| |D1_28| |E1_28| |F1_28| |G1_28| |H1_28| |I1_28| |J1_28| |K1_28| |M1_16| |.loc.5| |.loc.6| |.loc.7| |.loc.8| |M1_0|) (let ((.def_53 (not .loc.6))) (let ((.def_55 (not .loc.7))) (let ((.def_57 (not .loc.8))) (let ((.def_89 (= B_28 .x.1041))) (let ((.def_93 (= M_28 .x.1052))) (let ((.def_96 (= N_28 .x.1053))) (let ((.def_99 (= U_28 .x.1060))) (let ((.def_102 (= V_28 .x.1061))) (let ((.def_105 (= W_28 .x.1062))) (let ((.def_108 (= X_28 .x.1063))) (let ((.def_111 (= Z_28 .x.1065))) (let ((.def_114 (= B1_28 .x.1067))) (let ((.def_117 (= E1_28 .x.1070))) (let ((.def_120 (= H1_28 .x.1073))) (let ((.def_122 (not .loc.5))) (let ((.def_136 (= M1_16 L1_28))) (let ((.def_144 (= P_28 0))) (let ((.def_147 (and .def_96 (and .def_89 .def_93)))) (let ((.def_155 (and .def_120 (and .def_117 (and .def_114 (and .def_111 (and .def_108 (and .def_105 (and .def_102 (and .def_99 .def_147)))))))))) (let ((.def_159 (not .loc.10))) (let ((.def_165 (= Y_28 .x.1064))) (let ((.def_167 (= P_28 .x.1055))) (let ((.def_170 (= D1_28 .x.1069))) (let ((.def_173 (= I1_28 .x.1074))) (let ((.def_178 (not .loc.9))) (let ((.def_184 (select D_28 W_28))) (let ((.def_189 (select D_28 B1_28))) (let ((.def_194 (<= 100000 C1_28))) (let ((.def_211 (not .loc.11))) (let ((.def_216 (= G1_28 .x.1072))) (let ((.def_218 (= C1_28 .x.1068))) (let ((.def_227 (and .def_147 .def_167))) (let ((.def_231 (and .def_108 (and .def_105 (and .def_102 (and .def_99 .def_227)))))) (let ((.def_251 (and .def_114 (and .def_111 (and .def_165 .def_231))))) (let ((.def_267 (and M1_16 .def_89))) (let ((.def_283 (and .def_173 (and .def_120 (and .def_216 (and .def_117 (and .def_170 (and .def_218 (and .def_114 (and .def_111 (and .def_165 (and .def_108 (and .def_105 (and .def_102 (and .def_99 (and .def_167 (and .def_96 (and .def_93 .def_267)))))))))))))))))) (let ((.def_299 (and .def_173 (and .def_120 (and .def_216 (and .def_117 (and .def_170 (and .def_218 .def_251)))))))) (let ((.def_321 (and .def_53 (and .def_122 (and .loc.8 .def_299))))) (let ((.def_327 (<= 100000 A1_28))) (let ((.def_328 (or M1_16 .def_327))) (let ((.def_332 (= S_28 .x.1058))) (let ((.def_334 (= D_28 .x.1043))) (let ((.def_337 (= A1_28 .x.1066))) (let ((.def_340 (= F1_28 .x.1071))) (let ((.def_343 (* 4 A1_28))) (let ((.def_345 (select D_28 N_28))) (let ((.def_351 (not .def_327))) (let ((.def_362 (or L1_28 (= (+ A1_28 (* (- 1) .x.1066)) (- 1))))) (let ((.def_373 (and .def_167 (and .def_96 (and .def_93 (and .def_89 .def_334)))))) (let ((.def_374 (and .def_332 .def_373))) (let ((.def_380 (and .def_111 (and .def_165 (and .def_108 (and .def_105 (and .def_102 (and .def_99 .def_374)))))))) (let ((.def_389 (and .def_173 (and .def_120 (and .def_216 (and .def_340 (and .def_117 (and .def_170 (and .def_218 (and .def_114 (and .def_337 .def_380))))))))))) (let ((.def_398 (not .loc.12))) (let ((.def_405 (and .def_167 (and .def_96 (and .def_93 (and .def_267 .def_334)))))) (let ((.def_406 (and .def_332 .def_405))) (let ((.def_421 (and .def_173 (and .def_120 (and .def_216 (and .def_340 (and .def_117 (and .def_170 (and .def_218 (and .def_114 (and .def_337 (and .def_111 (and .def_165 (and .def_108 (and .def_105 (and .def_102 (and .def_99 .def_406))))))))))))))))) (let ((.def_450 (or M1_16 (= .x.1066 0)))) (let ((.def_475 (= J1_28 .x.1075))) (let ((.def_477 (= T_28 .x.1059))) (let ((.def_481 (select D_28 V_28))) (let ((.def_488 (and .def_227 .def_332))) (let ((.def_521 (and .def_111 (and .def_165 (and .def_108 (and .def_105 (and .def_102 (and .def_99 (and .def_374 .def_477))))))))) (let ((.def_591 (= K1_28 .x.1076))) (let ((.def_593 (= Q_28 .x.1056))) (let ((.def_640 (and .def_111 (and .def_165 (and .def_108 (and .def_105 (and .def_102 (and .def_99 (and .def_477 (and .def_332 (and .def_373 .def_593))))))))))) (let ((.def_692 (<= 100000 O_28))) (let ((.def_826 (store M1_0 .x.1067 1))) (let ((.def_830 (store .def_826 .x.1061 1))) (let ((.def_834 (store .def_830 .x.1053 1))) (and (and (= K_28 .x.1050) (and (= I_28 .x.1048) (and (= G_28 .x.1046) (and (= E_28 .x.1044) (and (= A_28 .x.1040) (= C_28 .x.1042)))))) (or (and (or (and (or (or (or (or (and (or (or (or (or (and (or (or (or (or (or (and (or (and (or (or (or (or (or (or (and (or (and (or (and (or (and (and (and (and (and (and (and (and (and (and (and (and .def_89 L1_28) .def_93) .def_96) .def_99) .def_102) .def_105) .def_108) .def_111) .def_114) .def_117) .def_120) .def_122) (and (or M1_16 (and (= .x.1073 0) (= .x.1041 (store (store (store (store B_28 B1_28 0) V_28 0) N_28 0) W_28 0)))) (and (and .loc.5 (or L1_28 (= .x.1063 .x.1073))) .def_136))) (and (and .loc.7 .def_53) .loc.10)) (and (or M1_16 .def_144) (and .def_55 (and (and .def_136 (and .loc.6 (and .loc.5 .def_155))) .def_159)))) (and (and (and (and (and .def_165 .def_167) .def_170) .def_173) .loc.11) .def_178)) (and (or M1_16 (and (= .x.1064 (select .def_184 (+ Z_28 (* 4 C1_28)))) (and (= .x.1055 .x.1074) (and (= .x.1069 (select .def_189 (+ (* 4 C1_28) E1_28))) (and (not .def_194) (= .x.1074 (ite (= .x.1064 .x.1069) 1 0))))))) (and (and .def_55 (and .def_136 (and .loc.10 (and .loc.9 (and .def_122 (and .loc.6 .def_155)))))) .def_211))) (and .loc.8 (and .def_216 .def_218))) (and (or L1_28 (= (+ C1_28 (* (- 1) .x.1068)) (- 1))) (and .def_57 (and .def_211 (and .def_55 (and .def_136 (and .def_178 (and .loc.10 (and .def_53 (and .def_122 (and .def_173 (and .def_120 (and .def_117 (and .def_114 (and .def_111 .def_231))))))))))))))) (and (or M1_16 (= .x.1068 0)) (and .def_211 (and .def_55 (and .def_136 (and .def_178 (and .loc.10 (and .def_53 (and .loc.8 (and .loc.5 (and .def_173 (and .def_120 (and .def_216 (and .def_117 (and .def_170 .def_251))))))))))))))) (and .def_55 (and .def_159 (and .def_136 (and .loc.11 (and .loc.9 (and .def_122 (and .loc.8 (and .loc.6 .def_283))))))))) (and (or M1_16 .def_194) (and .def_55 (and .def_159 (and .def_136 (and .loc.11 (and .loc.9 (and .def_122 (and .loc.8 (and .loc.6 .def_299)))))))))) (and .def_211 (and .def_55 (and .def_159 (and .def_136 (and .loc.9 (and .def_53 (and .def_122 (and .loc.8 .def_283))))))))) (and (and .def_211 (and .def_55 (and .def_159 (and .def_136 (and .loc.9 .def_321))))) .def_328)) (and (and (and .def_332 .def_334) .def_337) .def_340)) (and (or M1_16 (and (= .x.1043 (store D_28 W_28 (store .def_184 (+ Z_28 .def_343) (select .def_345 (+ U_28 .def_343))))) .def_351)) (and (and .def_211 (and .def_55 (and .def_159 (and .def_136 (and .def_178 .def_321))))) .def_362))) .loc.12) (and (or M1_16 (not .def_144)) (and (and .def_211 (and .def_55 (and .def_159 (and .def_136 (and .def_178 (and .loc.8 (and .loc.6 (and .loc.5 .def_389)))))))) .def_398))) (and .def_398 (and .def_211 (and .def_159 (and .def_136 (and .def_178 (and .def_53 (and .def_122 (and .loc.8 (and .loc.7 .def_421)))))))))) (and (and .def_57 (and .def_211 (and .def_159 (and .def_136 (and .def_178 (and .loc.12 (and .loc.7 (and .loc.6 (and .loc.5 (and .def_173 (and .def_120 (and .def_216 (and .def_340 (and .def_117 (and .def_170 (and .def_218 (and .def_114 .def_380))))))))))))))))) .def_450)) (and .def_398 (and .def_57 (and .def_136 (and .loc.11 (and .loc.10 (and .loc.9 (and .def_122 (and .loc.7 (and .loc.6 .def_421)))))))))) (and .def_398 (and .def_328 (and .def_57 (and .def_136 (and .loc.11 (and .loc.10 (and .loc.9 (and .def_122 (and .loc.7 (and .loc.6 .def_389))))))))))) (and .def_475 .def_477)) (and (or M1_16 (and .def_351 (= .x.1043 (store D_28 N_28 (store .def_345 (+ U_28 .def_343) (select .def_481 (+ M_28 .def_343))))))) (and .def_398 (and .def_362 (and .def_57 (and .def_136 (and .def_178 (and .loc.11 (and .loc.10 (and .def_122 (and .loc.7 (and .loc.6 (and .def_173 (and .def_120 (and .def_216 (and .def_340 (and .def_117 (and .def_170 (and .def_218 (and .def_114 (and .def_111 (and .def_165 (and .def_108 (and .def_105 (and .def_102 (and .def_99 .def_488)))))))))))))))))))))))))) (and .def_450 (and .def_398 (and .def_57 (and .def_136 (and .def_178 (and .loc.11 (and .loc.10 (and .def_53 (and .loc.7 (and .loc.5 (and .def_475 (and .def_173 (and .def_120 (and .def_216 (and .def_340 (and .def_117 (and .def_170 (and .def_218 (and .def_114 .def_521)))))))))))))))))))) (and .def_398 (and .def_57 (and .def_159 (and .def_136 (and .loc.11 (and .loc.9 (and .def_53 (and .def_122 (and .loc.7 (and .def_475 (and .def_173 (and .def_120 (and .def_216 (and .def_340 (and .def_117 (and .def_170 (and .def_218 (and .def_114 (and .def_337 (and .def_111 (and .def_165 (and .def_108 (and .def_105 (and .def_102 (and .def_99 (and .def_406 .def_477))))))))))))))))))))))))))) (and .def_398 (and .def_328 (and .def_57 (and .def_159 (and .def_136 (and .loc.11 (and .loc.9 (and .def_53 (and .def_122 (and .loc.7 (and .def_475 (and .def_173 (and .def_120 (and .def_216 (and .def_340 (and .def_117 (and .def_170 (and .def_218 (and .def_114 (and .def_337 .def_521))))))))))))))))))))) (and .def_591 .def_593)) (and (or M1_16 (and .def_351 (= .x.1043 (store D_28 V_28 (store .def_481 (+ M_28 .def_343) (select .def_189 (+ .def_343 E1_28))))))) (and .def_398 (and .def_362 (and .def_57 (and .def_159 (and .def_136 (and .def_178 (and .loc.11 (and .def_53 (and .def_122 (and .loc.7 (and .def_475 (and .def_173 (and .def_120 (and .def_216 (and .def_340 (and .def_117 (and .def_170 (and .def_218 (and .def_114 (and .def_111 (and .def_165 (and .def_108 (and .def_105 (and .def_102 (and .def_99 (and .def_477 .def_488)))))))))))))))))))))))))))) (and .def_450 (and .def_398 (and .def_57 (and .def_55 (and .def_159 (and .def_136 (and .def_178 (and .loc.11 (and .loc.6 (and .loc.5 (and .def_591 (and .def_475 (and .def_173 (and .def_120 (and .def_216 (and .def_340 (and .def_117 (and .def_170 (and .def_218 (and .def_114 .def_640))))))))))))))))))))) (and .def_398 (and .def_57 (and .def_211 (and .def_55 (and .def_136 (and .loc.10 (and .loc.9 (and .def_122 (and .loc.6 (and .def_591 (and .def_475 (and .def_173 (and .def_120 (and .def_216 (and .def_340 (and .def_117 (and .def_170 (and .def_218 (and .def_114 (and .def_337 (and .def_111 (and .def_165 (and .def_108 (and .def_105 (and .def_102 (and .def_99 (and .def_477 (and .def_332 (and .def_405 .def_593)))))))))))))))))))))))))))))) (and (or M1_16 .def_692) (and .def_398 (and .def_57 (and .def_211 (and .def_55 (and .def_136 (and .loc.10 (and .loc.9 (and .def_122 (and .loc.6 (and .def_591 (and .def_475 (and .def_173 (and .def_120 (and .def_216 (and .def_340 (and .def_117 (and .def_170 (and .def_218 (and .def_114 (and .def_337 .def_640)))))))))))))))))))))) (and (= R_28 .x.1057) (and (= L_28 .x.1051) (= O_28 .x.1054)))) (and (or M1_16 (and (= .x.1043 (store D_28 B1_28 (store .def_189 (+ (* 4 O_28) E1_28) L_28))) (and (<= (- 2147483648) L_28) (and (<= L_28 2147483647) (not .def_692))))) (and (or L1_28 (= (+ O_28 (* (- 1) .x.1054)) (- 1))) (and .def_398 (and .def_57 (and .def_211 (and .def_55 (and .def_136 (and .def_178 (and .loc.10 (and .def_122 (and .loc.6 (and .def_591 (and .def_475 (and .def_173 (and .def_120 (and .def_216 (and .def_340 (and .def_117 (and .def_170 (and .def_218 (and .def_114 (and .def_337 (and .def_111 (and .def_165 (and .def_108 (and .def_105 (and .def_102 (and .def_99 (and .def_477 (and .def_332 (and .def_227 .def_593)))))))))))))))))))))))))))))))) (and (= J_28 .x.1049) (and (= F_28 .x.1045) (= H_28 .x.1047)))) (and (or M1_16 (and (and (= .x.1049 0) (= .x.1045 0)) (= M1_0 (store B_28 0 0)))) (and (or L1_28 (and (and (and (and (and (and (and (and (and (and (and (and (and (and (and (and (and (and (not (<= .x.1040 .x.1061)) (not (<= .x.1040 .x.1053))) (not (<= .x.1040 .x.1062))) (not (<= .x.1040 .x.1067))) (= .x.1052 0)) (= .x.1054 0)) (= .x.1060 0)) (not (= .x.1062 0))) (= .x.1065 0)) (= .x.1070 0)) (not (= .x.1053 0))) (not (= .x.1061 0))) (not (= .x.1067 0))) (= (select .def_826 .x.1061) 0)) (= (select .def_830 .x.1053) 0)) (= (select .def_834 .x.1062) 0)) (= (select M1_0 .x.1067) 0)) (= .x.1041 (store .def_834 .x.1062 1))) (= .x.1047 (store (store (store (store H_28 .x.1067 400000) .x.1061 400000) .x.1053 400000) .x.1062 400000)))) (and .def_398 (and .def_57 (and .def_211 (and .def_55 (and .def_136 (and .def_178 (and .loc.10 (and .def_53 (and .loc.5 (and .def_173 (and .def_108 (and .def_167 .def_334)))))))))))))))))))))))))))))))))))))))))))))))))))))))))))))))))))))))))))))))))))))) (state |.x.1040| |.x.1041| |.x.1042| |.x.1043| |.x.1044| |.x.1045| |.x.1046| |.x.1047| |.x.1048| |.x.1049| |.x.1050| |.x.1051| |.x.1052| |.x.1053| |.x.1054| |.x.1055| |.x.1056| |.x.1057| |.x.1058| |.x.1059| |.x.1060| |.x.1061| |.x.1062| |.x.1063| |.x.1064| |.x.1065| |.x.1066| |.x.1067| |.x.1068| |.x.1069| |.x.1070| |.x.1071| |.x.1072| |.x.1073| |.x.1074| |.x.1075| |.x.1076| |L1_28| |.loc.9| |.loc.10| |.loc.11| |.loc.12| |.xtv.1|))))
(assert (forall ((|A_28| Int) (|B_28| (Array Int Int)) (|C_28| (Array Int Int)) (|D_28| (Array Int Int)) (|E_28| (Array Int Int)) (|F_28| Int) (|G_28| Int) (|H_28| (Array Int Int)) (|I_28| (Array Int Int)) (|J_28| Int) (|K_28| Int) (|L_28| Int) (|M_28| Int) (|N_28| Int) (|O_28| Int) (|P_28| Int) (|Q_28| Int) (|R_28| Int) (|S_28| Int) (|T_28| Int) (|U_28| Int) (|V_28| Int) (|W_28| Int) (|X_28| Int) (|Y_28| Int) (|Z_28| Int) (|A1_28| Int) (|B1_28| Int) (|C1_28| Int) (|D1_28| Int) (|E1_28| Int) (|F1_28| Int) (|G1_28| Int) (|H1_28| Int) (|I1_28| Int) (|J1_28| Int) (|K1_28| Int) (|M1_16| Bool) (|.loc.5| Bool) (|.loc.6| Bool) (|.loc.7| Bool) (|.loc.8| Bool) (|M1_0| (Array Int Int)) (|.x.1050| Int) (|.x.1048| (Array Int Int)) (|.x.1046| Int) (|.x.1044| (Array Int Int)) (|.x.1040| Int) (|.x.1042| (Array Int Int)) (|.x.1041| (Array Int Int)) (|L1_28| Bool) (|.x.1052| Int) (|.x.1053| Int) (|.x.1060| Int) (|.x.1061| Int) (|.x.1062| Int) (|.x.1063| Int) (|.x.1065| Int) (|.x.1067| Int) (|.x.1070| Int) (|.x.1073| Int) (|.loc.10| Bool) (|.x.1064| Int) (|.x.1055| Int) (|.x.1069| Int) (|.x.1074| Int) (|.loc.11| Bool) (|.loc.9| Bool) (|.x.1072| Int) (|.x.1068| Int) (|.x.1058| Int) (|.x.1043| (Array Int Int)) (|.x.1066| Int) (|.x.1071| Int) (|.loc.12| Bool) (|.x.1075| Int) (|.x.1059| Int) (|.x.1076| Int) (|.x.1056| Int) (|.x.1057| Int) (|.x.1051| Int) (|.x.1054| Int) (|.x.1049| Int) (|.x.1045| Int) (|.x.1047| (Array Int Int)) (|.xtv.1| (Array Int Int))) (=> (state |A_28| |B_28| |C_28| |D_28| |E_28| |F_28| |G_28| |H_28| |I_28| |J_28| |K_28| |L_28| |M_28| |N_28| |O_28| |P_28| |Q_28| |R_28| |S_28| |T_28| |U_28| |V_28| |W_28| |X_28| |Y_28| |Z_28| |A1_28| |B1_28| |C1_28| |D1_28| |E1_28| |F1_28| |G1_28| |H1_28| |I1_28| |J1_28| |K1_28| |M1_16| |.loc.5| |.loc.6| |.loc.7| |.loc.8| |M1_0|) (not (and M1_16 (and .loc.8 (and .loc.7 (and .loc.6 (not .loc.5)))))))))
(check-sat)
